p cnf 125 755
1 2 3 4 5 0
-1 -2 0
-1 -3 0
-1 -4 0
-1 -5 0
-2 -3 0
-2 -4 0
-2 -5 0
-3 -4 0
-3 -5 0
-4 -5 0
4 0
29 9 0
-29 -9 0
6 7 8 9 10 0
-6 -7 0
-6 -8 0
-6 -9 0
-6 -10 0
-7 -8 0
-7 -9 0
-7 -10 0
-8 -9 0
-8 -10 0
-9 -10 0
9 0
34 4 14 0
-34 -4 0
-34 -14 0
-4 -14 0
11 12 13 14 15 0
-11 -12 0
-11 -13 0
-11 -14 0
-11 -15 0
-12 -13 0
-12 -14 0
-12 -15 0
-13 -14 0
-13 -15 0
-14 -15 0
12 0
37 7 17 0
-37 -7 0
-37 -17 0
-7 -17 0
16 17 18 19 20 0
-16 -17 0
-16 -18 0
-16 -19 0
-16 -20 0
-17 -18 0
-17 -19 0
-17 -20 0
-18 -19 0
-18 -20 0
-19 -20 0
18 0
43 13 23 0
-43 -13 0
-43 -23 0
-13 -23 0
21 22 23 24 25 0
-21 -22 0
-21 -23 0
-21 -24 0
-21 -25 0
-22 -23 0
-22 -24 0
-22 -25 0
-23 -24 0
-23 -25 0
-24 -25 0
-21 46 0
-21 16 0
-22 47 0
-22 17 0
-23 48 0
-23 18 0
-24 49 0
-24 19 0
-25 50 0
-25 20 0
26 27 28 29 30 0
-26 -27 0
-26 -28 0
-26 -29 0
-26 -30 0
-27 -28 0
-27 -29 0
-27 -30 0
-28 -29 0
-28 -30 0
-29 -30 0
-26 51 1 0
-26 51 31 0
-26 1 31 0
-27 52 2 0
-27 52 32 0
-27 2 32 0
-28 53 3 0
-28 53 33 0
-28 3 33 0
-29 54 4 0
-29 54 34 0
-29 4 34 0
-30 55 5 0
-30 55 35 0
-30 5 35 0
-26 -51 -1 -31 0
-27 -52 -2 -32 0
-28 -53 -3 -33 0
-29 -54 -4 -34 0
-30 -55 -5 -35 0
31 32 33 34 35 0
-31 -32 0
-31 -33 0
-31 -34 0
-31 -35 0
-32 -33 0
-32 -34 0
-32 -35 0
-33 -34 0
-33 -35 0
-34 -35 0
-31 56 6 36 0
-31 56 6 26 0
-31 56 36 26 0
-31 6 36 26 0
-32 57 7 37 0
-32 57 7 27 0
-32 57 37 27 0
-32 7 37 27 0
-33 58 8 38 0
-33 58 8 28 0
-33 58 38 28 0
-33 8 38 28 0
-34 59 9 39 0
-34 59 9 29 0
-34 59 39 29 0
-34 9 39 29 0
-35 60 10 40 0
-35 60 10 30 0
-35 60 40 30 0
-35 10 40 30 0
-31 -56 -6 -36 0
-31 -56 -6 -26 0
-31 -56 -36 -26 0
-31 -6 -36 -26 0
-32 -57 -7 -37 0
-32 -57 -7 -27 0
-32 -57 -37 -27 0
-32 -7 -37 -27 0
-33 -58 -8 -38 0
-33 -58 -8 -28 0
-33 -58 -38 -28 0
-33 -8 -38 -28 0
-34 -59 -9 -39 0
-34 -59 -9 -29 0
-34 -59 -39 -29 0
-34 -9 -39 -29 0
-35 -60 -10 -40 0
-35 -60 -10 -30 0
-35 -60 -40 -30 0
-35 -10 -40 -30 0
36 37 38 39 40 0
-36 -37 0
-36 -38 0
-36 -39 0
-36 -40 0
-37 -38 0
-37 -39 0
-37 -40 0
-38 -39 0
-38 -40 0
-39 -40 0
-36 61 11 41 0
-36 61 11 31 0
-36 61 41 31 0
-36 11 41 31 0
-37 62 12 42 0
-37 62 12 32 0
-37 62 42 32 0
-37 12 42 32 0
-38 63 13 43 0
-38 63 13 33 0
-38 63 43 33 0
-38 13 43 33 0
-39 64 14 44 0
-39 64 14 34 0
-39 64 44 34 0
-39 14 44 34 0
-40 65 15 45 0
-40 65 15 35 0
-40 65 45 35 0
-40 15 45 35 0
-36 -61 -11 -41 0
-36 -61 -11 -31 0
-36 -61 -41 -31 0
-36 -11 -41 -31 0
-37 -62 -12 -42 0
-37 -62 -12 -32 0
-37 -62 -42 -32 0
-37 -12 -42 -32 0
-38 -63 -13 -43 0
-38 -63 -13 -33 0
-38 -63 -43 -33 0
-38 -13 -43 -33 0
-39 -64 -14 -44 0
-39 -64 -14 -34 0
-39 -64 -44 -34 0
-39 -14 -44 -34 0
-40 -65 -15 -45 0
-40 -65 -15 -35 0
-40 -65 -45 -35 0
-40 -15 -45 -35 0
41 42 43 44 45 0
-41 -42 0
-41 -43 0
-41 -44 0
-41 -45 0
-42 -43 0
-42 -44 0
-42 -45 0
-43 -44 0
-43 -45 0
-44 -45 0
-41 66 16 46 0
-41 66 16 36 0
-41 66 46 36 0
-41 16 46 36 0
-42 67 17 47 0
-42 67 17 37 0
-42 67 47 37 0
-42 17 47 37 0
-43 68 18 48 0
-43 68 18 38 0
-43 68 48 38 0
-43 18 48 38 0
-44 69 19 49 0
-44 69 19 39 0
-44 69 49 39 0
-44 19 49 39 0
-45 70 20 50 0
-45 70 20 40 0
-45 70 50 40 0
-45 20 50 40 0
-41 -66 -16 -46 0
-41 -66 -16 -36 0
-41 -66 -46 -36 0
-41 -16 -46 -36 0
-42 -67 -17 -47 0
-42 -67 -17 -37 0
-42 -67 -47 -37 0
-42 -17 -47 -37 0
-43 -68 -18 -48 0
-43 -68 -18 -38 0
-43 -68 -48 -38 0
-43 -18 -48 -38 0
-44 -69 -19 -49 0
-44 -69 -19 -39 0
-44 -69 -49 -39 0
-44 -19 -49 -39 0
-45 -70 -20 -50 0
-45 -70 -20 -40 0
-45 -70 -50 -40 0
-45 -20 -50 -40 0
46 47 48 49 50 0
-46 -47 0
-46 -48 0
-46 -49 0
-46 -50 0
-47 -48 0
-47 -49 0
-47 -50 0
-48 -49 0
-48 -50 0
-49 -50 0
-46 71 21 0
-46 71 41 0
-46 21 41 0
-47 72 22 0
-47 72 42 0
-47 22 42 0
-48 73 23 0
-48 73 43 0
-48 23 43 0
-49 74 24 0
-49 74 44 0
-49 24 44 0
-50 75 25 0
-50 75 45 0
-50 25 45 0
-46 -71 -21 -41 0
-47 -72 -22 -42 0
-48 -73 -23 -43 0
-49 -74 -24 -44 0
-50 -75 -25 -45 0
51 52 53 54 55 0
-51 -52 0
-51 -53 0
-51 -54 0
-51 -55 0
-52 -53 0
-52 -54 0
-52 -55 0
-53 -54 0
-53 -55 0
-54 -55 0
53 0
78 28 58 0
-78 -28 0
-78 -58 0
-28 -58 0
56 57 58 59 60 0
-56 -57 0
-56 -58 0
-56 -59 0
-56 -60 0
-57 -58 0
-57 -59 0
-57 -60 0
-58 -59 0
-58 -60 0
-59 -60 0
-56 81 31 61 0
-56 81 31 51 0
-56 81 61 51 0
-56 31 61 51 0
-57 82 32 62 0
-57 82 32 52 0
-57 82 62 52 0
-57 32 62 52 0
-58 83 33 63 0
-58 83 33 53 0
-58 83 63 53 0
-58 33 63 53 0
-59 84 34 64 0
-59 84 34 54 0
-59 84 64 54 0
-59 34 64 54 0
-60 85 35 65 0
-60 85 35 55 0
-60 85 65 55 0
-60 35 65 55 0
-56 -81 -31 -61 0
-56 -81 -31 -51 0
-56 -81 -61 -51 0
-56 -31 -61 -51 0
-57 -82 -32 -62 0
-57 -82 -32 -52 0
-57 -82 -62 -52 0
-57 -32 -62 -52 0
-58 -83 -33 -63 0
-58 -83 -33 -53 0
-58 -83 -63 -53 0
-58 -33 -63 -53 0
-59 -84 -34 -64 0
-59 -84 -34 -54 0
-59 -84 -64 -54 0
-59 -34 -64 -54 0
-60 -85 -35 -65 0
-60 -85 -35 -55 0
-60 -85 -65 -55 0
-60 -35 -65 -55 0
61 62 63 64 65 0
-61 -62 0
-61 -63 0
-61 -64 0
-61 -65 0
-62 -63 0
-62 -64 0
-62 -65 0
-63 -64 0
-63 -65 0
-64 -65 0
-61 86 36 66 0
-61 86 36 56 0
-61 86 66 56 0
-61 36 66 56 0
-62 87 37 67 0
-62 87 37 57 0
-62 87 67 57 0
-62 37 67 57 0
-63 88 38 68 0
-63 88 38 58 0
-63 88 68 58 0
-63 38 68 58 0
-64 89 39 69 0
-64 89 39 59 0
-64 89 69 59 0
-64 39 69 59 0
-65 90 40 70 0
-65 90 40 60 0
-65 90 70 60 0
-65 40 70 60 0
-61 -86 -36 -66 0
-61 -86 -36 -56 0
-61 -86 -66 -56 0
-61 -36 -66 -56 0
-62 -87 -37 -67 0
-62 -87 -37 -57 0
-62 -87 -67 -57 0
-62 -37 -67 -57 0
-63 -88 -38 -68 0
-63 -88 -38 -58 0
-63 -88 -68 -58 0
-63 -38 -68 -58 0
-64 -89 -39 -69 0
-64 -89 -39 -59 0
-64 -89 -69 -59 0
-64 -39 -69 -59 0
-65 -90 -40 -70 0
-65 -90 -40 -60 0
-65 -90 -70 -60 0
-65 -40 -70 -60 0
66 67 68 69 70 0
-66 -67 0
-66 -68 0
-66 -69 0
-66 -70 0
-67 -68 0
-67 -69 0
-67 -70 0
-68 -69 0
-68 -70 0
-69 -70 0
-66 91 41 71 0
-66 91 41 61 0
-66 91 71 61 0
-66 41 71 61 0
-67 92 42 72 0
-67 92 42 62 0
-67 92 72 62 0
-67 42 72 62 0
-68 93 43 73 0
-68 93 43 63 0
-68 93 73 63 0
-68 43 73 63 0
-69 94 44 74 0
-69 94 44 64 0
-69 94 74 64 0
-69 44 74 64 0
-70 95 45 75 0
-70 95 45 65 0
-70 95 75 65 0
-70 45 75 65 0
-66 -91 -41 -71 0
-66 -91 -41 -61 0
-66 -91 -71 -61 0
-66 -41 -71 -61 0
-67 -92 -42 -72 0
-67 -92 -42 -62 0
-67 -92 -72 -62 0
-67 -42 -72 -62 0
-68 -93 -43 -73 0
-68 -93 -43 -63 0
-68 -93 -73 -63 0
-68 -43 -73 -63 0
-69 -94 -44 -74 0
-69 -94 -44 -64 0
-69 -94 -74 -64 0
-69 -44 -74 -64 0
-70 -95 -45 -75 0
-70 -95 -45 -65 0
-70 -95 -75 -65 0
-70 -45 -75 -65 0
71 72 73 74 75 0
-71 -72 0
-71 -73 0
-71 -74 0
-71 -75 0
-72 -73 0
-72 -74 0
-72 -75 0
-73 -74 0
-73 -75 0
-74 -75 0
-71 96 46 0
-71 96 66 0
-71 46 66 0
-72 97 47 0
-72 97 67 0
-72 47 67 0
-73 98 48 0
-73 98 68 0
-73 48 68 0
-74 99 49 0
-74 99 69 0
-74 49 69 0
-75 100 50 0
-75 100 70 0
-75 50 70 0
-71 -96 -46 -66 0
-72 -97 -47 -67 0
-73 -98 -48 -68 0
-74 -99 -49 -69 0
-75 -100 -50 -70 0
76 77 78 79 80 0
-76 -77 0
-76 -78 0
-76 -79 0
-76 -80 0
-77 -78 0
-77 -79 0
-77 -80 0
-78 -79 0
-78 -80 0
-79 -80 0
-76 101 51 0
-76 101 81 0
-76 51 81 0
-77 102 52 0
-77 102 82 0
-77 52 82 0
-78 103 53 0
-78 103 83 0
-78 53 83 0
-79 104 54 0
-79 104 84 0
-79 54 84 0
-80 105 55 0
-80 105 85 0
-80 55 85 0
-76 -101 -51 -81 0
-77 -102 -52 -82 0
-78 -103 -53 -83 0
-79 -104 -54 -84 0
-80 -105 -55 -85 0
81 82 83 84 85 0
-81 -82 0
-81 -83 0
-81 -84 0
-81 -85 0
-82 -83 0
-82 -84 0
-82 -85 0
-83 -84 0
-83 -85 0
-84 -85 0
85 0
110 60 90 80 0
-110 -60 0
-110 -90 0
-110 -80 0
-60 -90 0
-60 -80 0
-90 -80 0
86 87 88 89 90 0
-86 -87 0
-86 -88 0
-86 -89 0
-86 -90 0
-87 -88 0
-87 -89 0
-87 -90 0
-88 -89 0
-88 -90 0
-89 -90 0
-86 111 61 91 0
-86 111 61 81 0
-86 111 91 81 0
-86 61 91 81 0
-87 112 62 92 0
-87 112 62 82 0
-87 112 92 82 0
-87 62 92 82 0
-88 113 63 93 0
-88 113 63 83 0
-88 113 93 83 0
-88 63 93 83 0
-89 114 64 94 0
-89 114 64 84 0
-89 114 94 84 0
-89 64 94 84 0
-90 115 65 95 0
-90 115 65 85 0
-90 115 95 85 0
-90 65 95 85 0
-86 -111 -61 -91 0
-86 -111 -61 -81 0
-86 -111 -91 -81 0
-86 -61 -91 -81 0
-87 -112 -62 -92 0
-87 -112 -62 -82 0
-87 -112 -92 -82 0
-87 -62 -92 -82 0
-88 -113 -63 -93 0
-88 -113 -63 -83 0
-88 -113 -93 -83 0
-88 -63 -93 -83 0
-89 -114 -64 -94 0
-89 -114 -64 -84 0
-89 -114 -94 -84 0
-89 -64 -94 -84 0
-90 -115 -65 -95 0
-90 -115 -65 -85 0
-90 -115 -95 -85 0
-90 -65 -95 -85 0
91 92 93 94 95 0
-91 -92 0
-91 -93 0
-91 -94 0
-91 -95 0
-92 -93 0
-92 -94 0
-92 -95 0
-93 -94 0
-93 -95 0
-94 -95 0
92 0
117 67 97 87 0
-117 -67 0
-117 -97 0
-117 -87 0
-67 -97 0
-67 -87 0
-97 -87 0
96 97 98 99 100 0
-96 -97 0
-96 -98 0
-96 -99 0
-96 -100 0
-97 -98 0
-97 -99 0
-97 -100 0
-98 -99 0
-98 -100 0
-99 -100 0
-96 121 71 0
-96 121 91 0
-96 71 91 0
-97 122 72 0
-97 122 92 0
-97 72 92 0
-98 123 73 0
-98 123 93 0
-98 73 93 0
-99 124 74 0
-99 124 94 0
-99 74 94 0
-100 125 75 0
-100 125 95 0
-100 75 95 0
-96 -121 -71 -91 0
-97 -122 -72 -92 0
-98 -123 -73 -93 0
-99 -124 -74 -94 0
-100 -125 -75 -95 0
101 102 103 104 105 0
-101 -102 0
-101 -103 0
-101 -104 0
-101 -105 0
-102 -103 0
-102 -104 0
-102 -105 0
-103 -104 0
-103 -105 0
-104 -105 0
105 0
80 110 0
-80 -110 0
106 107 108 109 110 0
-106 -107 0
-106 -108 0
-106 -109 0
-106 -110 0
-107 -108 0
-107 -109 0
-107 -110 0
-108 -109 0
-108 -110 0
-109 -110 0
-106 101 81 0
-106 81 111 0
-106 101 111 0
-107 102 82 0
-107 82 112 0
-107 102 112 0
-108 103 83 0
-108 83 113 0
-108 103 113 0
-109 104 84 0
-109 84 114 0
-109 104 114 0
-110 105 85 0
-110 85 115 0
-110 105 115 0
-106 -81 -101 -111 0
-107 -82 -102 -112 0
-108 -83 -103 -113 0
-109 -84 -104 -114 0
-110 -85 -105 -115 0
111 112 113 114 115 0
-111 -112 0
-111 -113 0
-111 -114 0
-111 -115 0
-112 -113 0
-112 -114 0
-112 -115 0
-113 -114 0
-113 -115 0
-114 -115 0
111 0
106 86 116 0
-106 -86 0
-106 -116 0
-86 -116 0
116 117 118 119 120 0
-116 -117 0
-116 -118 0
-116 -119 0
-116 -120 0
-117 -118 0
-117 -119 0
-117 -120 0
-118 -119 0
-118 -120 0
-119 -120 0
-116 111 91 0
-116 91 121 0
-116 111 121 0
-117 112 92 0
-117 92 122 0
-117 112 122 0
-118 113 93 0
-118 93 123 0
-118 113 123 0
-119 114 94 0
-119 94 124 0
-119 114 124 0
-120 115 95 0
-120 95 125 0
-120 115 125 0
-116 -91 -111 -121 0
-117 -92 -112 -122 0
-118 -93 -113 -123 0
-119 -94 -114 -124 0
-120 -95 -115 -125 0
121 122 123 124 125 0
-121 -122 0
-121 -123 0
-121 -124 0
-121 -125 0
-122 -123 0
-122 -124 0
-122 -125 0
-123 -124 0
-123 -125 0
-124 -125 0
121 0
96 116 0
-96 -116 0